Route #1: 21 45 36 5 8 20 11 37
Route #2: 23 1 13 26 39 33 47
Route #3: 6 2 17 48 19 44 40 15 34
Route #4: 35 4 29 46 12 9 38 22
Route #5: 41 31 7 30 25
Route #6: 28 32 49
Route #7: 3 42 10 27 16 24 43 14 18
cost 761.7811889648438